NAME : random_17
COMMENT : 60 random nodes
TYPE : TSP
DIMENSION : 60
EDGE_WEIGHT_TYPE : EUC_2D
NODE_COORD_SECTION
1 970 922
2 648 439
3 99 609
4 608 306
5 215 891
6 704 677
7 224 555
8 278 560
9 82 199
10 201 112
11 237 612
12 570 216
13 350 634
14 893 992
15 691 45
16 822 63
17 87 957
18 126 885
19 947 966
20 354 627
21 774 265
22 951 860
23 548 295
24 995 680
25 567 38
26 923 643
27 335 659
28 612 620
29 712 97
30 441 850
31 846 222
32 869 43
33 135 805
34 523 454
35 272 431
36 197 354
37 59 359
38 595 631
39 398 2
40 29 105
41 939 347
42 907 673
43 762 163
44 860 706
45 835 908
46 512 481
47 752 403
48 912 734
49 732 961
50 222 147
51 687 340
52 559 903
53 567 38
54 761 596
55 46 232
56 987 234
57 876 568
58 702 291
59 361 26
60 999 2
EOF